GLPSOL--GLPK LP/MIP Solver 5.0
Parameter(s) specified in the command line:
 --lp ../modeles/3_389.lp --log 3_389.log
Reading problem data from '../modeles/3_389.lp'...
1180 rows, 2340 columns, 8184 non-zeros
1167 integer variables, all of which are binary
3529 lines were read
GLPK Integer Optimizer 5.0
1180 rows, 2340 columns, 8184 non-zeros
1167 integer variables, all of which are binary
Preprocessing...
1158 constraint coefficient(s) were reduced
1180 rows, 2337 columns, 8181 non-zeros
1167 integer variables, all of which are binary
Scaling...
 A: min|aij| =  2.643e-05  max|aij| =  4.000e+00  ratio =  1.513e+05
GM: min|aij| =  5.070e-02  max|aij| =  1.972e+01  ratio =  3.890e+02
EQ: min|aij| =  2.571e-03  max|aij| =  1.000e+00  ratio =  3.890e+02
2N: min|aij| =  1.953e-03  max|aij| =  1.763e+00  ratio =  9.025e+02
Constructing initial basis...
Size of triangular part is 1180
Solving LP relaxation...
GLPK Simplex Optimizer 5.0
1180 rows, 2337 columns, 8181 non-zeros
      0: obj =   6.000000000e+00 inf =   1.450e+01 (7)
     62: obj =   4.999636532e-01 inf =   0.000e+00 (0)
*   208: obj =  -1.731987927e+00 inf =   5.523e-16 (0)
OPTIMAL LP SOLUTION FOUND
Integer optimization begins...
Long-step dual simplex will be used
+   208: mip =     not found yet >=              -inf        (1; 0)
+   652: >>>>>  -1.731987927e+00 >=  -1.731987927e+00 < 0.1% (444; 0)
+   652: mip =  -1.731987927e+00 >=     tree is empty   0.0% (0; 887)
INTEGER OPTIMAL SOLUTION FOUND
Time used:   0.7 secs
Memory used: 3.5 Mb (3631907 bytes)
